num_offers = 35;
num_halls = 10;
start=[12,4,14,12,53,55,27,8,61,94,22,46,33,70,67,22,6,21,22,38,27,67,9,7,51,2,23,48,57,19,5,7,7,33,47];
end=[73,5,56,86,74,97,67,15,73,100,57,78,55,90,75,84,47,31,97,60,44,69,69,37,81,67,99,68,62,84,36,98,78,61,80];
price=[1645,144,1065,3931,258,3968,1663,163,1088,188,3019,603,1621,821,472,1444,3776,275,5334,603,1228,278,2042,1816,791,3492,3947,1219,447,6594,2275,1522,3286,2728,3242];
requirement=[922,774,253,361,658,773,288,907,284,689,729,560,932,861,841,753,575,534,455,588,735,447,451,556,728,488,593,839,757,879,557,660,611,858,745];
capacity=[414,770,976,632,686,373,994,511,470,344];
